(set-info :source |printed by MathSAT|)
(declare-fun hhv_ULTIMATE.start_L34_0_Int () Int)
(declare-fun .x.162 () Int)
(declare-fun hhv_ULTIMATE.start_L34_1_Array_Int_Int () (Array Int Int))
(declare-fun .x.163 () (Array Int Int))
(declare-fun hhv_ULTIMATE.start_L34_2_Array_Int_Int () (Array Int Int))
(declare-fun .x.164 () (Array Int Int))
(declare-fun hbv_ULTIMATE.start_L17_3_Array_Int_Array_Int_Int () (Array Int (Array Int Int)))
(declare-fun .x.165 () (Array Int (Array Int Int)))
(declare-fun hhv_ULTIMATE.start_L34_4_Array_Int_Array_Int_Int () (Array Int (Array Int Int)))
(declare-fun .x.166 () (Array Int (Array Int Int)))
(declare-fun hhv_ULTIMATE.start_L34_5_Int () Int)
(declare-fun .x.167 () Int)
(declare-fun hhv_ULTIMATE.start_L34_6_Int () Int)
(declare-fun .x.168 () Int)
(declare-fun hhv_ULTIMATE.start_L34_7_Array_Int_Int () (Array Int Int))
(declare-fun .x.169 () (Array Int Int))
(declare-fun hhv_ULTIMATE.start_L34_8_Array_Int_Int () (Array Int Int))
(declare-fun .x.170 () (Array Int Int))
(declare-fun hhv_ULTIMATE.start_L34_9_Int () Int)
(declare-fun .x.171 () Int)
(declare-fun hhv_ULTIMATE.start_L34_10_Int () Int)
(declare-fun .x.172 () Int)
(declare-fun hhv_ULTIMATE.start_L34_11_Int () Int)
(declare-fun .x.173 () Int)
(declare-fun hhv_ULTIMATE.start_L34_12_Int () Int)
(declare-fun .x.174 () Int)
(declare-fun hhv_ULTIMATE.start_L34_13_Int () Int)
(declare-fun .x.175 () Int)
(declare-fun hhv_ULTIMATE.start_L34_14_Int () Int)
(declare-fun .x.176 () Int)
(declare-fun hhv_ULTIMATE.start_L34_15_Int () Int)
(declare-fun .x.177 () Int)
(declare-fun hhv_ULTIMATE.start_L34_16_Int () Int)
(declare-fun .x.178 () Int)
(declare-fun hhv_ULTIMATE.start_L34_17_Int () Int)
(declare-fun .x.179 () Int)
(declare-fun hbv_ULTIMATE.start_L17_18_Int () Int)
(declare-fun .x.180 () Int)
(declare-fun hhv_ULTIMATE.start_L34_19_Int () Int)
(declare-fun .x.181 () Int)
(declare-fun hbv_ULTIMATE.start_L17_20_Int () Int)
(declare-fun .x.182 () Int)
(declare-fun hhv_ULTIMATE.start_L34_21_Int () Int)
(declare-fun .x.183 () Int)
(declare-fun hhv_ULTIMATE.start_L34_22_Int () Int)
(declare-fun .x.184 () Int)
(declare-fun hbv_ULTIMATE.start_L17_23_Int () Int)
(declare-fun .x.185 () Int)
(declare-fun hbv_ULTIMATE.start_L17_24_Int () Int)
(declare-fun .x.186 () Int)
(declare-fun hhv_ULTIMATE.start_L34_25_Int () Int)
(declare-fun .x.187 () Int)
(declare-fun hbv_ULTIMATE.start_L17_26_Int () Int)
(declare-fun .x.188 () Int)
(declare-fun hhv_ULTIMATE.start_L34_27_Bool () Bool)
(declare-fun hhv_ULTIMATE.start_ULTIMATE.startEXIT_27_Bool () Bool)
(declare-fun .loc.3 () Bool)
(declare-fun .loc.5 () Bool)
(declare-fun .loc.4 () Bool)
(declare-fun .loc.6 () Bool)
(declare-fun hbv_ULTIMATE.start_L34_23_Int () Int)
(declare-fun hbv_ULTIMATE.start_L-1_1_Array_Int_Int () (Array Int Int))
(define-fun .def_8 () Int (! hhv_ULTIMATE.start_L34_0_Int :next |.x.162|))
(define-fun .def_10 () (Array Int Int) (! hhv_ULTIMATE.start_L34_1_Array_Int_Int :next |.x.163|))
(define-fun .def_12 () (Array Int Int) (! hhv_ULTIMATE.start_L34_2_Array_Int_Int :next |.x.164|))
(define-fun .def_14 () (Array Int (Array Int Int)) (! hbv_ULTIMATE.start_L17_3_Array_Int_Array_Int_Int :next |.x.165|))
(define-fun .def_16 () (Array Int (Array Int Int)) (! hhv_ULTIMATE.start_L34_4_Array_Int_Array_Int_Int :next |.x.166|))
(define-fun .def_18 () Int (! hhv_ULTIMATE.start_L34_5_Int :next |.x.167|))
(define-fun .def_20 () Int (! hhv_ULTIMATE.start_L34_6_Int :next |.x.168|))
(define-fun .def_22 () (Array Int Int) (! hhv_ULTIMATE.start_L34_7_Array_Int_Int :next |.x.169|))
(define-fun .def_24 () (Array Int Int) (! hhv_ULTIMATE.start_L34_8_Array_Int_Int :next |.x.170|))
(define-fun .def_26 () Int (! hhv_ULTIMATE.start_L34_9_Int :next |.x.171|))
(define-fun .def_28 () Int (! hhv_ULTIMATE.start_L34_10_Int :next |.x.172|))
(define-fun .def_30 () Int (! hhv_ULTIMATE.start_L34_11_Int :next |.x.173|))
(define-fun .def_32 () Int (! hhv_ULTIMATE.start_L34_12_Int :next |.x.174|))
(define-fun .def_34 () Int (! hhv_ULTIMATE.start_L34_13_Int :next |.x.175|))
(define-fun .def_36 () Int (! hhv_ULTIMATE.start_L34_14_Int :next |.x.176|))
(define-fun .def_38 () Int (! hhv_ULTIMATE.start_L34_15_Int :next |.x.177|))
(define-fun .def_40 () Int (! hhv_ULTIMATE.start_L34_16_Int :next |.x.178|))
(define-fun .def_42 () Int (! hhv_ULTIMATE.start_L34_17_Int :next |.x.179|))
(define-fun .def_44 () Int (! hbv_ULTIMATE.start_L17_18_Int :next |.x.180|))
(define-fun .def_46 () Int (! hhv_ULTIMATE.start_L34_19_Int :next |.x.181|))
(define-fun .def_48 () Int (! hbv_ULTIMATE.start_L17_20_Int :next |.x.182|))
(define-fun .def_50 () Int (! hhv_ULTIMATE.start_L34_21_Int :next |.x.183|))
(define-fun .def_52 () Int (! hhv_ULTIMATE.start_L34_22_Int :next |.x.184|))
(define-fun .def_54 () Int (! hbv_ULTIMATE.start_L17_23_Int :next |.x.185|))
(define-fun .def_56 () Int (! hbv_ULTIMATE.start_L17_24_Int :next |.x.186|))
(define-fun .def_58 () Int (! hhv_ULTIMATE.start_L34_25_Int :next |.x.187|))
(define-fun .def_60 () Int (! hbv_ULTIMATE.start_L17_26_Int :next |.x.188|))
(define-fun .def_62 () Bool (! hhv_ULTIMATE.start_L34_27_Bool :next |hhv_ULTIMATE.start_ULTIMATE.startEXIT_27_Bool|))
(define-fun .def_64 () Bool (! .loc.3 :next |.loc.5|))
(define-fun .def_66 () Bool (! .loc.4 :next |.loc.6|))
(define-fun .def_78 () Int (! hbv_ULTIMATE.start_L34_23_Int :next |.xtv.1|))
(define-fun .def_160 () (Array Int Int) (! hbv_ULTIMATE.start_L-1_1_Array_Int_Int :next |.xtv.2|))
(define-fun .def_146 () Bool (not .def_64))
(define-fun .def_116 () Bool (not .def_66))
(define-fun .def_286 () Bool (and .def_116 .def_146))
(define-fun .def_280 () Bool (= .def_10 .def_12))
(define-fun .def_279 () Bool (= .def_22 .def_24))
(define-fun .def_281 () Bool (and .def_279 .def_280))
(define-fun .def_278 () Bool (= .def_18 .def_20))
(define-fun .def_282 () Bool (and .def_278 .def_281))
(define-fun .def_277 () Bool (not .def_62))
(define-fun .def_283 () Bool (and .def_277 .def_282))
(define-fun .def_276 () Bool (= .def_14 .def_16))
(define-fun .def_284 () Bool (and .def_276 .def_283))
(define-fun .def_275 () Bool (= .def_26 .def_28))
(define-fun .def_285 () Bool (and .def_275 .def_284))
(define-fun .def_287 () Bool (! (and .def_285 .def_286) :init true))
(define-fun .def_272 () Bool (= .def_28 .x.172))
(define-fun .def_270 () Bool (= .def_24 .x.170))
(define-fun .def_268 () Bool (= .def_20 .x.168))
(define-fun .def_266 () Bool (= .def_16 .x.166))
(define-fun .def_264 () Bool (= .def_8 .x.162))
(define-fun .def_263 () Bool (= .def_12 .x.164))
(define-fun .def_265 () Bool (and .def_263 .def_264))
(define-fun .def_267 () Bool (and .def_265 .def_266))
(define-fun .def_269 () Bool (and .def_267 .def_268))
(define-fun .def_271 () Bool (and .def_269 .def_270))
(define-fun .def_273 () Bool (and .def_271 .def_272))
(define-fun .def_142 () Bool (= .def_78 2))
(define-fun .def_251 () Bool (not .def_142))
(define-fun .def_252 () Bool (or .def_62 .def_251))
(define-fun .def_76 () (Array Int Int) (select .x.165 .def_42))
(define-fun .def_77 () Int (select .def_76 .def_30))
(define-fun .def_79 () Bool (= .def_77 .def_78))
(define-fun .def_72 () (Array Int Int) (select .def_14 .x.182))
(define-fun .def_73 () (Array Int Int) (store .def_72 .x.188 2))
(define-fun .def_74 () (Array Int (Array Int Int)) (store .def_14 .x.182 .def_73))
(define-fun .def_75 () Bool (= .x.165 .def_74))
(define-fun .def_80 () Bool (and .def_75 .def_79))
(define-fun .def_70 () Bool (= .def_38 .x.188))
(define-fun .def_81 () Bool (and .def_70 .def_80))
(define-fun .def_69 () Bool (= .def_32 .x.182))
(define-fun .def_82 () Bool (and .def_69 .def_81))
(define-fun .def_83 () Bool (or .def_62 .def_82))
(define-fun .def_246 () Bool (and hhv_ULTIMATE.start_ULTIMATE.startEXIT_27_Bool .def_83))
(define-fun .def_85 () Bool (= .def_10 .x.163))
(define-fun .def_247 () Bool (and .def_85 .def_246))
(define-fun .def_93 () Bool (= .def_30 .x.173))
(define-fun .def_248 () Bool (and .def_93 .def_247))
(define-fun .def_103 () Bool (= .def_40 .x.178))
(define-fun .def_249 () Bool (and .def_103 .def_248))
(define-fun .def_105 () Bool (= .def_42 .x.179))
(define-fun .def_250 () Bool (and .def_105 .def_249))
(define-fun .def_253 () Bool (and .def_250 .def_252))
(define-fun .def_254 () Bool (and .def_64 .def_253))
(define-fun .def_255 () Bool (and .def_116 .def_254))
(define-fun .def_242 () (Array Int Int) (store .def_10 .def_42 0))
(define-fun .def_243 () Bool (= .x.163 .def_242))
(define-fun .def_244 () Bool (or .def_62 .def_243))
(define-fun .def_240 () Bool (= .def_14 .x.165))
(define-fun .def_238 () Bool (= .def_44 .x.180))
(define-fun .def_236 () Bool (= .def_48 .x.182))
(define-fun .def_234 () Bool (= .def_54 .x.185))
(define-fun .def_232 () Bool (= .def_56 .x.186))
(define-fun .def_230 () Bool (= .def_60 .x.188))
(define-fun .def_227 () Bool (and .def_66 .def_146))
(define-fun .def_225 () Bool (= .x.178 .x.181))
(define-fun .def_226 () Bool (or hhv_ULTIMATE.start_ULTIMATE.startEXIT_27_Bool .def_225))
(define-fun .def_228 () Bool (and .def_226 .def_227))
(define-fun .def_139 () Bool (= .def_62 hhv_ULTIMATE.start_ULTIMATE.startEXIT_27_Bool))
(define-fun .def_229 () Bool (and .def_139 .def_228))
(define-fun .def_231 () Bool (and .def_229 .def_230))
(define-fun .def_233 () Bool (and .def_231 .def_232))
(define-fun .def_235 () Bool (and .def_233 .def_234))
(define-fun .def_237 () Bool (and .def_235 .def_236))
(define-fun .def_239 () Bool (and .def_237 .def_238))
(define-fun .def_241 () Bool (and .def_239 .def_240))
(define-fun .def_245 () Bool (and .def_241 .def_244))
(define-fun .def_256 () Bool (or .def_245 .def_255))
(define-fun .def_89 () Bool (= .def_22 .x.169))
(define-fun .def_87 () Bool (= .def_18 .x.167))
(define-fun .def_214 () Bool (and .def_87 .def_89))
(define-fun .def_91 () Bool (= .def_26 .x.171))
(define-fun .def_215 () Bool (and .def_91 .def_214))
(define-fun .def_95 () Bool (= .def_32 .x.174))
(define-fun .def_216 () Bool (and .def_95 .def_215))
(define-fun .def_97 () Bool (= .def_34 .x.175))
(define-fun .def_217 () Bool (and .def_97 .def_216))
(define-fun .def_99 () Bool (= .def_36 .x.176))
(define-fun .def_218 () Bool (and .def_99 .def_217))
(define-fun .def_101 () Bool (= .def_38 .x.177))
(define-fun .def_219 () Bool (and .def_101 .def_218))
(define-fun .def_107 () Bool (= .def_46 .x.181))
(define-fun .def_220 () Bool (and .def_107 .def_219))
(define-fun .def_109 () Bool (= .def_50 .x.183))
(define-fun .def_221 () Bool (and .def_109 .def_220))
(define-fun .def_111 () Bool (= .def_52 .x.184))
(define-fun .def_222 () Bool (and .def_111 .def_221))
(define-fun .def_113 () Bool (= .def_58 .x.187))
(define-fun .def_223 () Bool (and .def_113 .def_222))
(define-fun .def_224 () Bool (and .loc.6 .def_223))
(define-fun .def_257 () Bool (and .def_224 .def_256))
(define-fun .def_200 () Bool (= .def_78 0))
(define-fun .def_207 () Bool (not .def_200))
(define-fun .def_201 () Bool (= .x.177 .x.183))
(define-fun .def_208 () Bool (and .def_201 .def_207))
(define-fun .def_203 () Bool (= .x.174 .x.175))
(define-fun .def_209 () Bool (and .def_203 .def_208))
(define-fun .def_210 () Bool (or hhv_ULTIMATE.start_ULTIMATE.startEXIT_27_Bool .def_209))
(define-fun .def_149 () Bool (not .loc.6))
(define-fun .def_145 () Bool (and .def_103 .def_116))
(define-fun .def_147 () Bool (and .def_145 .def_146))
(define-fun .def_148 () Bool (and .def_139 .def_147))
(define-fun .def_150 () Bool (and .def_148 .def_149))
(define-fun .def_211 () Bool (and .def_150 .def_210))
(define-fun .def_177 () (Array Int Int) (select .def_14 .x.179))
(define-fun .def_178 () (Array Int Int) (store .def_177 .x.173 1))
(define-fun .def_179 () (Array Int (Array Int Int)) (store .def_14 .x.179 .def_178))
(define-fun .def_180 () Bool (= .x.165 .def_179))
(define-fun .def_175 () Bool (= .x.173 0))
(define-fun .def_173 () Bool (= .x.175 .x.176))
(define-fun .def_171 () Bool (= .x.173 .x.187))
(define-fun .def_170 () Bool (= .x.183 .x.187))
(define-fun .def_172 () Bool (and .def_170 .def_171))
(define-fun .def_174 () Bool (and .def_172 .def_173))
(define-fun .def_176 () Bool (and .def_174 .def_175))
(define-fun .def_181 () Bool (and .def_176 .def_180))
(define-fun .def_168 () Int (select .def_160 .x.179))
(define-fun .def_169 () Bool (= .def_168 0))
(define-fun .def_182 () Bool (and .def_169 .def_181))
(define-fun .def_167 () Bool (<= (- 2147483648) .def_78))
(define-fun .def_183 () Bool (and .def_167 .def_182))
(define-fun .def_164 () Bool (= .x.179 0))
(define-fun .def_165 () Bool (not .def_164))
(define-fun .def_184 () Bool (and .def_165 .def_183))
(define-fun .def_161 () (Array Int Int) (store .def_160 .x.179 1))
(define-fun .def_162 () Bool (= .x.163 .def_161))
(define-fun .def_185 () Bool (and .def_162 .def_184))
(define-fun .def_157 () Bool (<= .x.162 .x.179))
(define-fun .def_158 () Bool (not .def_157))
(define-fun .def_186 () Bool (and .def_158 .def_185))
(define-fun .def_156 () Bool (<= .def_78 2147483647))
(define-fun .def_187 () Bool (and .def_156 .def_186))
(define-fun .def_154 () Bool (= .x.176 .x.179))
(define-fun .def_188 () Bool (and .def_154 .def_187))
(define-fun .def_152 () (Array Int Int) (store .def_22 .x.179 4))
(define-fun .def_153 () Bool (= .x.169 .def_152))
(define-fun .def_189 () Bool (and .def_153 .def_188))
(define-fun .def_190 () Bool (or hhv_ULTIMATE.start_ULTIMATE.startEXIT_27_Bool .def_189))
(define-fun .def_212 () Bool (and .def_190 .def_211))
(define-fun .def_195 () Bool (= .x.167 0))
(define-fun .def_194 () Bool (= .x.171 0))
(define-fun .def_196 () Bool (and .def_194 .def_195))
(define-fun .def_192 () (Array Int Int) (store .def_10 0 0))
(define-fun .def_193 () Bool (= .def_160 .def_192))
(define-fun .def_197 () Bool (and .def_193 .def_196))
(define-fun .def_198 () Bool (or .def_62 .def_197))
(define-fun .def_213 () Bool (and .def_198 .def_212))
(define-fun .def_258 () Bool (or .def_213 .def_257))
(define-fun .def_202 () Bool (and .def_200 .def_201))
(define-fun .def_204 () Bool (and .def_202 .def_203))
(define-fun .def_205 () Bool (or hhv_ULTIMATE.start_ULTIMATE.startEXIT_27_Bool .def_204))
(define-fun .def_191 () Bool (and .def_150 .def_190))
(define-fun .def_199 () Bool (and .def_191 .def_198))
(define-fun .def_206 () Bool (and .def_199 .def_205))
(define-fun .def_259 () Bool (or .def_206 .def_258))
(define-fun .def_260 () Bool (and .loc.5 .def_259))
(define-fun .def_143 () Bool (or hhv_ULTIMATE.start_ULTIMATE.startEXIT_27_Bool .def_142))
(define-fun .def_121 () Bool (and .def_83 .def_85))
(define-fun .def_122 () Bool (and .def_87 .def_121))
(define-fun .def_123 () Bool (and .def_89 .def_122))
(define-fun .def_124 () Bool (and .def_91 .def_123))
(define-fun .def_125 () Bool (and .def_93 .def_124))
(define-fun .def_126 () Bool (and .def_95 .def_125))
(define-fun .def_127 () Bool (and .def_97 .def_126))
(define-fun .def_128 () Bool (and .def_99 .def_127))
(define-fun .def_129 () Bool (and .def_101 .def_128))
(define-fun .def_130 () Bool (and .def_103 .def_129))
(define-fun .def_131 () Bool (and .def_105 .def_130))
(define-fun .def_132 () Bool (and .def_107 .def_131))
(define-fun .def_133 () Bool (and .def_109 .def_132))
(define-fun .def_134 () Bool (and .def_111 .def_133))
(define-fun .def_135 () Bool (and .def_113 .def_134))
(define-fun .def_136 () Bool (and .def_64 .def_135))
(define-fun .def_137 () Bool (and .def_116 .def_136))
(define-fun .def_138 () Bool (and .loc.6 .def_137))
(define-fun .def_140 () Bool (and .def_138 .def_139))
(define-fun .def_119 () Bool (not .loc.5))
(define-fun .def_141 () Bool (and .def_119 .def_140))
(define-fun .def_144 () Bool (and .def_141 .def_143))
(define-fun .def_261 () Bool (or .def_144 .def_260))
(define-fun .def_68 () Bool (and .def_62 hhv_ULTIMATE.start_ULTIMATE.startEXIT_27_Bool))
(define-fun .def_84 () Bool (and .def_68 .def_83))
(define-fun .def_86 () Bool (and .def_84 .def_85))
(define-fun .def_88 () Bool (and .def_86 .def_87))
(define-fun .def_90 () Bool (and .def_88 .def_89))
(define-fun .def_92 () Bool (and .def_90 .def_91))
(define-fun .def_94 () Bool (and .def_92 .def_93))
(define-fun .def_96 () Bool (and .def_94 .def_95))
(define-fun .def_98 () Bool (and .def_96 .def_97))
(define-fun .def_100 () Bool (and .def_98 .def_99))
(define-fun .def_102 () Bool (and .def_100 .def_101))
(define-fun .def_104 () Bool (and .def_102 .def_103))
(define-fun .def_106 () Bool (and .def_104 .def_105))
(define-fun .def_108 () Bool (and .def_106 .def_107))
(define-fun .def_110 () Bool (and .def_108 .def_109))
(define-fun .def_112 () Bool (and .def_110 .def_111))
(define-fun .def_114 () Bool (and .def_112 .def_113))
(define-fun .def_115 () Bool (and .def_64 .def_114))
(define-fun .def_117 () Bool (and .def_115 .def_116))
(define-fun .def_118 () Bool (and .loc.6 .def_117))
(define-fun .def_120 () Bool (and .def_118 .def_119))
(define-fun .def_262 () Bool (or .def_120 .def_261))
(define-fun .def_274 () Bool (! (and .def_262 .def_273) :trans true))
(define-fun .def_288 () Bool (and .def_64 .def_66))
(define-fun .def_289 () Bool (and .def_62 .def_288))
(define-fun .def_290 () Bool (! (not .def_289) :invar-property 0))
(assert true)
